SDVRP instances/custom_instances/p02_19_split0.vrp
NAME:p02_19_split
BEST_KNOWN: 0
COMMENT: 0
DIMENSION: 363
CAPACITY: 140
EDGE_WEIGHT_FORMAT: FUNCTION
EDGE_WEIGHT_TYPE: EXACT_2D
NODE_COORD_SECTION
1 0.00000 0.00000
2 -37 -20
3 -37 -20
4 -37 -20
5 -37 -20
6 -37 -20
7 -40 -47
8 -40 -47
9 22 44
10 22 44
11 22 44
12 22 44
13 22 44
14 22 44
15 0 -5
16 0 -5
17 0 -5
18 0 -5
19 0 -5
20 0 -5
21 -4 34
22 -4 34
23 -4 34
24 -4 34
25 -4 34
26 -4 34
27 -4 34
28 16 22
29 16 22
30 16 22
31 16 22
32 16 22
33 16 22
34 -21 47
35 -21 47
36 -21 47
37 -21 47
38 -21 47
39 -5 -26
40 -5 -26
41 25 -44
42 7 -27
43 7 -27
44 7 -27
45 7 -27
46 7 -27
47 7 -27
48 7 -27
49 -8 16
50 -8 16
51 -8 16
52 -8 16
53 -4 43
54 -4 43
55 -4 43
56 -35 -40
57 -35 -40
58 -35 -40
59 -35 -40
60 -35 -40
61 -35 -40
62 -35 -40
63 -23 -39
64 -23 -39
65 -23 -39
66 -23 -39
67 -23 -39
68 -23 -39
69 -23 -39
70 -11 -37
71 -11 -37
72 -11 -37
73 -3 43
74 -3 43
75 -3 43
76 -3 43
77 24 20
78 24 20
79 24 20
80 0 -48
81 0 -48
82 0 -48
83 -37 -43
84 -37 -43
85 -37 -43
86 -37 -43
87 -37 -43
88 -37 -43
89 25 29
90 25 29
91 16 -46
92 16 -46
93 16 -46
94 0 -48
95 0 -48
96 0 -48
97 0 -48
98 7 47
99 7 47
100 7 47
101 7 47
102 -34 -29
103 -34 -29
104 -34 -29
105 -34 -29
106 -34 -29
107 -34 -29
108 17 -42
109 17 -42
110 17 -42
111 17 -42
112 24 45
113 24 45
114 24 45
115 24 45
116 24 45
117 24 45
118 24 45
119 24 45
120 6 -35
121 6 -35
122 6 -35
123 6 -35
124 6 -35
125 6 -35
126 6 -35
127 -7 31
128 -7 31
129 -7 31
130 -7 31
131 -21 32
132 -26 -19
133 -26 -19
134 -26 -19
135 20 22
136 20 22
137 20 22
138 -1 36
139 -1 36
140 -1 36
141 -1 36
142 -1 36
143 -1 36
144 -1 36
145 -14 -34
146 -14 -34
147 -14 -34
148 -14 -34
149 -14 -34
150 -14 -34
151 50 -42
152 50 -42
153 50 -42
154 50 -42
155 50 -42
156 50 -42
157 50 -42
158 -47 40
159 -47 40
160 -47 40
161 -47 40
162 -47 40
163 -47 40
164 -47 40
165 -47 40
166 -43 24
167 -43 24
168 -43 24
169 -43 24
170 -43 24
171 2 -33
172 2 -33
173 2 -33
174 2 -33
175 9 -45
176 9 -45
177 9 -45
178 9 -45
179 -47 42
180 -47 42
181 -47 42
182 -13 -9
183 -13 -9
184 -13 -9
185 -13 -9
186 -13 -9
187 -13 -9
188 -13 -9
189 -13 -9
190 -11 -45
191 -38 4
192 -38 4
193 -38 4
194 -38 4
195 -38 4
196 -38 4
197 -38 4
198 9 -29
199 9 -29
200 -12 -6
201 -12 -6
202 -12 -6
203 -12 -6
204 -12 -6
205 20 -35
206 20 -35
207 20 -35
208 20 -35
209 20 -35
210 20 -35
211 -48 -19
212 -48 -19
213 -48 -19
214 -48 -19
215 -48 -19
216 -48 -19
217 -48 -19
218 -44 -29
219 -44 -29
220 -44 -29
221 -44 -29
222 -44 -29
223 -44 -29
224 24 26
225 24 26
226 24 26
227 24 26
228 24 26
229 24 26
230 24 26
231 -26 4
232 -26 4
233 -26 4
234 -26 4
235 -26 4
236 -26 4
237 26 0
238 26 0
239 26 0
240 -1 -31
241 -1 -31
242 -1 -31
243 -1 -31
244 44 49
245 44 49
246 44 49
247 44 49
248 44 49
249 44 49
250 44 49
251 44 49
252 49 -49
253 49 -49
254 49 -49
255 49 -49
256 49 -49
257 49 -49
258 3 46
259 3 46
260 3 46
261 3 46
262 13 19
263 13 19
264 -34 -49
265 -34 -49
266 -34 -49
267 -34 -49
268 -34 -49
269 40 -32
270 40 -32
271 40 -32
272 -30 -7
273 -30 -7
274 -30 -7
275 -30 -7
276 -30 -7
277 -30 -7
278 -30 -7
279 -30 -7
280 -30 -7
281 -41 -42
282 -41 -42
283 -41 -42
284 -41 -42
285 -41 -42
286 -41 -42
287 -41 -42
288 -41 -42
289 -41 -42
290 35 15
291 35 15
292 35 15
293 -40 -12
294 -40 -12
295 -40 -12
296 -40 -12
297 -40 -12
298 -40 -12
299 -40 -12
300 -40 -12
301 14 33
302 14 33
303 33 -8
304 33 -8
305 29 17
306 29 17
307 29 17
308 29 17
309 29 17
310 29 17
311 29 17
312 33 -29
313 33 -29
314 33 -29
315 33 -29
316 33 -29
317 33 -29
318 33 -29
319 27 47
320 27 47
321 27 47
322 27 47
323 27 47
324 27 47
325 5 -13
326 5 -13
327 5 -13
328 -22 -7
329 -22 -7
330 -22 -7
331 -22 38
332 -22 38
333 -22 38
334 28 45
335 28 45
336 28 45
337 28 45
338 41 26
339 41 26
340 41 26
341 41 26
342 41 26
343 41 26
344 41 26
345 41 26
346 41 26
347 -10 15
348 -10 15
349 -10 15
350 -10 15
351 -10 15
352 -10 15
353 -10 15
354 -30 49
355 -30 49
356 -30 49
357 -30 49
358 20 39
359 20 39
360 20 39
361 20 39
362 -22 -40
363 -22 -40
DEMAND_SECTION
1 0
2 14
3 1
4 1
5 1
6 1
7 28
8 7
9 28
10 28
11 7
12 1
13 1
14 1
15 28
16 28
17 1
18 1
19 1
20 1
21 28
22 14
23 1
24 1
25 1
26 1
27 1
28 28
29 14
30 1
31 1
32 1
33 1
34 14
35 7
36 1
37 1
38 1
39 28
40 1
41 28
42 28
43 7
44 1
45 1
46 1
47 1
48 1
49 28
50 1
51 1
52 1
53 28
54 28
55 1
56 14
57 1
58 1
59 1
60 1
61 1
62 1
63 28
64 1
65 1
66 1
67 1
68 1
69 1
70 28
71 14
72 7
73 28
74 28
75 7
76 1
77 28
78 7
79 1
80 28
81 28
82 1
83 14
84 1
85 1
86 1
87 1
88 1
89 14
90 7
91 28
92 1
93 1
94 28
95 14
96 7
97 1
98 14
99 7
100 1
101 1
102 28
103 28
104 7
105 1
106 1
107 1
108 28
109 7
110 1
111 1
112 28
113 14
114 7
115 1
116 1
117 1
118 1
119 1
120 28
121 14
122 1
123 1
124 1
125 1
126 1
127 14
128 7
129 1
130 1
131 28
132 28
133 28
134 7
135 28
136 7
137 1
138 28
139 14
140 7
141 1
142 1
143 1
144 1
145 28
146 14
147 7
148 1
149 1
150 1
151 14
152 1
153 1
154 1
155 1
156 1
157 1
158 28
159 28
160 7
161 1
162 1
163 1
164 1
165 1
166 14
167 1
168 1
169 1
170 1
171 14
172 7
173 1
174 1
175 28
176 14
177 7
178 1
179 28
180 14
181 1
182 28
183 7
184 1
185 1
186 1
187 1
188 1
189 1
190 28
191 28
192 1
193 1
194 1
195 1
196 1
197 1
198 14
199 7
200 14
201 1
202 1
203 1
204 1
205 14
206 1
207 1
208 1
209 1
210 1
211 14
212 7
213 1
214 1
215 1
216 1
217 1
218 14
219 1
220 1
221 1
222 1
223 1
224 14
225 1
226 1
227 1
228 1
229 1
230 1
231 28
232 7
233 1
234 1
235 1
236 1
237 28
238 14
239 7
240 14
241 7
242 1
243 1
244 28
245 14
246 1
247 1
248 1
249 1
250 1
251 1
252 28
253 7
254 1
255 1
256 1
257 1
258 28
259 1
260 1
261 1
262 14
263 7
264 28
265 7
266 1
267 1
268 1
269 28
270 7
271 1
272 28
273 28
274 7
275 1
276 1
277 1
278 1
279 1
280 1
281 28
282 28
283 7
284 1
285 1
286 1
287 1
288 1
289 1
290 28
291 7
292 1
293 28
294 28
295 1
296 1
297 1
298 1
299 1
300 1
301 28
302 1
303 28
304 14
305 14
306 1
307 1
308 1
309 1
310 1
311 1
312 28
313 1
314 1
315 1
316 1
317 1
318 1
319 28
320 1
321 1
322 1
323 1
324 1
325 28
326 14
327 1
328 28
329 28
330 14
331 28
332 28
333 14
334 14
335 7
336 1
337 1
338 28
339 28
340 7
341 1
342 1
343 1
344 1
345 1
346 1
347 28
348 14
349 7
350 1
351 1
352 1
353 1
354 28
355 14
356 1
357 1
358 14
359 1
360 1
361 1
362 14
363 7
DEPOT_SECTION
1
-1
EOF