SDVRP instances/custom_instances/p02_19_split0.sol
362 -2 3 4 1 5 217 221 220 222 219 218 213 214 212 215 216 211 210 292 297 293 294 299 295 298 296 276 278 279 273 277 275 274 -15 14 19 16 18 17 -24 23 21 25 26 22 53 54 52 75 72 73 74 -30 29 333 336 334 335 323 321 320 322 319 318 246 247 243 250 249 245 248 244 88 89 229 226 224 227 225 228 -33 35 37 34 36 356 354 353 355 331 332 330 349 352 -39 38 69 71 70 145 146 149 148 144 147 -45 41 43 46 44 42 47 176 174 177 175 123 124 125 121 119 122 120 -50 49 51 48 129 128 127 126 20 130 350 346 -59 61 58 264 263 266 267 265 68 66 67 62 63 64 65 361 362 189 239 -60 55 57 56 86 84 82 85 83 87 6 7 285 288 280 287 281 282 284 283 286 -76 78 77 136 135 134 32 27 28 31 262 261 -103 101 104 102 105 106 132 131 133 -115 112 116 113 118 111 114 117 9 10 11 13 8 12 357 359 360 358 -138 137 139 140 142 143 141 257 258 259 260 98 99 100 97 301 300 -171 170 173 172 81 95 96 80 93 79 94 240 242 241 -179 180 178 158 159 161 162 160 164 157 163 165 168 167 166 169 231 234 235 233 232 -183 187 188 185 184 182 181 186 327 328 329 199 201 202 200 203 -198 197 110 109 107 108 92 91 90 40 205 204 209 206 207 208 -223 345 344 337 342 339 340 338 341 343 290 291 289 305 307 309 306 308 310 304 -238 236 237 302 303 325 326 324 -268 270 269 153 154 156 152 151 150 155 252 255 253 256 254 251 315 314 316 313 312 317 311 -272 271 192 196 193 191 190 195 194 230 348 351 347 0 





OBJ=
2169.571
BEST_KNOWN=
0.000